7
0, 461, 403, 191, 419, 274, 353
461, 0, 354, 289, 118, 570, 460
403, 354, 0, 248, 425, 650, 639
191, 289, 248, 0, 285, 404, 396
419, 118, 425, 285, 0, 477, 349
274, 570, 650, 404, 477, 0, 184
353, 460, 639, 396, 349, 184, 0
